*HEADING
** Single element longitudinal calibration
** Z = longitudinal
*NODE
1, 0.0, 0.0, 0.0
2, 1.0, 0.0, 0.0
3, 1.0, 1.0, 0.0
4, 0.0, 1.0, 0.0
5, 0.0, 0.0, 1.0
6, 1.0, 0.0, 1.0
7, 1.0, 1.0, 1.0
8, 0.0, 1.0, 1.0
*ELEMENT, TYPE=C3D8H, ELSET=EALL
1, 1,2,3,4,5,6,7,8
*NSET, NSET=FACE1
1,2,3,4
*NSET, NSET=FACE2
5,6,7,8
*NSET, NSET=FACE3
1,2,5,6
*NSET, NSET=FACE4
2,3,6,7
*NSET, NSET=FACE5
3,4,7,8
*NSET, NSET=FACE6
4,1,8,5
*MATERIAL, NAME=TESTMAT
*DEPVAR
2
*USER MATERIAL, CONSTANTS=3, UNSYMM
210, 1900, 0.64
*SOLID SECTION, ELSET=EALL, MATERIAL=TESTMAT
1.0
*STEP, NLGEOM=YES, INC=1000
*STATIC
0.01, 1.0, 1.E-8, 0.05
*Boundary
FACE1, 3, 3, 0.0
FACE3, 2, 2, 0.0
FACE6, 1, 1, 0.0
FACE2, 3, 3, 0.32
*OUTPUT, FIELD, FREQ=1
*NODE OUTPUT
U
*ELEMENT OUTPUT, ELSET=EALL
S, SDV
*OUTPUT, HISTORY, FREQ=1
*NODE OUTPUT, NSET=FACE2
U3, RF3
*ELEMENT OUTPUT, ELSET=EALL
S33
*END STEP
